benchmarks_vrp/CMT3/fixed_c/CMT3_6.vrp
NAME: CMT3_6
TYPE: CVRP
COMMENT: 826.14 - Cluster Nr.6
DIMENSION: 10
CAPACITY: 200
EDGE_WEIGHT_TYPE: EUC_2D
NODE_COORD_TYPE: TWOD_COORDS
NODE_COORD_SECTION: 
4 63 65
1 62 77
2 65 55
9 45 65
5 57 68
7 35 35
8 55 54
6 49 58
3 55 60
10 49 73
DEPOT_SECTION: 
7
-1
DEMAND_SECTION: 
6 10
3 16
9 9
5 15
7 0
8 26
2 14
10 25
4 8
1 20
EOF
