benchmarks_vrp/CMT3/fixed_c/CMT3_6.tour
NAME: CMT3_6 solution
TYPE: TOUR
TOUR_SECTION:
7 6 9 10 1 5 4 2 3 8 -1
-1
EOF